c description: Random 3-CNF over 20 variables and 85 clauses
c generator: CNFgen (0.9.2)
c copyright: (C) 2012-2022 Massimo Lauria <massimo.lauria@uniroma1.it>
c url: https://massimolauria.net/cnfgen
c command line: cnfgen --output CNF_4.28/20_bit_85_991.cnf randkcnf 3 20 85
c
p cnf 20 85
3 -9 -14 0
-5 -12 -15 0
-6 8 16 0
-14 -16 -18 0
-8 13 19 0
1 3 8 0
-5 -6 -8 0
-8 12 17 0
-10 13 15 0
4 -5 15 0
-4 -6 -8 0
5 15 -19 0
3 -6 19 0
7 8 11 0
-4 9 -16 0
-10 -11 12 0
-4 -16 20 0
2 7 -13 0
-1 -2 15 0
-13 15 -20 0
2 -10 -16 0
-1 -6 14 0
8 11 17 0
11 -16 17 0
2 10 20 0
-11 -14 16 0
-5 -8 16 0
-12 -16 19 0
12 15 -20 0
-1 4 10 0
-1 8 -12 0
10 18 19 0
-2 10 -18 0
-8 11 20 0
8 14 -19 0
11 13 19 0
5 9 -13 0
-5 11 -18 0
7 -8 -15 0
9 15 17 0
-3 14 15 0
17 -18 20 0
1 -3 -10 0
-4 15 -18 0
-2 -7 10 0
5 7 -19 0
-3 -5 18 0
8 -13 14 0
12 13 -17 0
-5 10 -11 0
-3 -6 -8 0
-6 13 15 0
-5 -11 -17 0
3 -19 -20 0
-4 6 17 0
7 9 -17 0
15 -16 -17 0
-2 -3 14 0
-7 -15 -16 0
-6 16 -20 0
7 12 20 0
-4 -6 17 0
4 -15 19 0
1 3 -14 0
-5 17 18 0
-2 14 -17 0
-3 5 -11 0
-6 -16 19 0
-7 9 -20 0
5 6 16 0
13 -14 18 0
-8 17 -19 0
-2 3 14 0
4 -6 -14 0
-2 6 -16 0
4 -18 20 0
9 10 -16 0
-4 7 -15 0
-3 -4 -11 0
-7 14 -17 0
-2 5 16 0
6 -9 16 0
-3 11 17 0
3 15 -17 0
-6 7 14 0
